p cnf 245 1659
1 0
-2 0
-3 0
-4 0
-5 0
36 6 0
-36 -6 0
6 7 8 9 10 0
-6 -7 0
-6 -8 0
-6 -9 0
-6 -10 0
-7 -8 0
-7 -9 0
-7 -10 0
-8 -9 0
-8 -10 0
-9 -10 0
-6 41 1 0
-6 41 11 0
-6 1 11 0
-7 42 2 0
-7 42 12 0
-7 2 12 0
-8 43 3 0
-8 43 13 0
-8 3 13 0
-9 44 4 0
-9 44 14 0
-9 4 14 0
-10 45 5 0
-10 45 15 0
-10 5 15 0
-6 -41 -1 -11 0
-7 -42 -2 -12 0
-8 -43 -3 -13 0
-9 -44 -4 -14 0
-10 -45 -5 -15 0
12 0
-11 0
-13 0
-14 0
-15 0
47 7 17 0
-47 -7 0
-47 -17 0
-7 -17 0
16 0
-17 0
-18 0
-19 0
-20 0
51 11 21 0
-51 -11 0
-51 -21 0
-11 -21 0
21 22 23 24 25 0
-21 -22 0
-21 -23 0
-21 -24 0
-21 -25 0
-22 -23 0
-22 -24 0
-22 -25 0
-23 -24 0
-23 -25 0
-24 -25 0
-21 56 16 0
-21 56 26 0
-21 16 26 0
-22 57 17 0
-22 57 27 0
-22 17 27 0
-23 58 18 0
-23 58 28 0
-23 18 28 0
-24 59 19 0
-24 59 29 0
-24 19 29 0
-25 60 20 0
-25 60 30 0
-25 20 30 0
-21 -56 -16 -26 0
-22 -57 -17 -27 0
-23 -58 -18 -28 0
-24 -59 -19 -29 0
-25 -60 -20 -30 0
26 27 28 29 30 0
-26 -27 0
-26 -28 0
-26 -29 0
-26 -30 0
-27 -28 0
-27 -29 0
-27 -30 0
-28 -29 0
-28 -30 0
-29 -30 0
-26 61 21 0
-26 61 31 0
-26 21 31 0
-27 62 22 0
-27 62 32 0
-27 22 32 0
-28 63 23 0
-28 63 33 0
-28 23 33 0
-29 64 24 0
-29 64 34 0
-29 24 34 0
-30 65 25 0
-30 65 35 0
-30 25 35 0
-26 -61 -21 -31 0
-27 -62 -22 -32 0
-28 -63 -23 -33 0
-29 -64 -24 -34 0
-30 -65 -25 -35 0
31 32 33 34 35 0
-31 -32 0
-31 -33 0
-31 -34 0
-31 -35 0
-32 -33 0
-32 -34 0
-32 -35 0
-33 -34 0
-33 -35 0
-34 -35 0
-31 66 0
-31 26 0
-32 67 0
-32 27 0
-33 68 0
-33 28 0
-34 69 0
-34 29 0
-35 70 0
-35 30 0
36 37 38 39 40 0
-36 -37 0
-36 -38 0
-36 -39 0
-36 -40 0
-37 -38 0
-37 -39 0
-37 -40 0
-38 -39 0
-38 -40 0
-39 -40 0
-36 71 1 0
-36 71 41 0
-36 1 41 0
-37 72 2 0
-37 72 42 0
-37 2 42 0
-38 73 3 0
-38 73 43 0
-38 3 43 0
-39 74 4 0
-39 74 44 0
-39 4 44 0
-40 75 5 0
-40 75 45 0
-40 5 45 0
-36 -71 -1 -41 0
-37 -72 -2 -42 0
-38 -73 -3 -43 0
-39 -74 -4 -44 0
-40 -75 -5 -45 0
41 42 43 44 45 0
-41 -42 0
-41 -43 0
-41 -44 0
-41 -45 0
-42 -43 0
-42 -44 0
-42 -45 0
-43 -44 0
-43 -45 0
-44 -45 0
-41 76 6 46 0
-41 76 6 36 0
-41 76 46 36 0
-41 6 46 36 0
-42 77 7 47 0
-42 77 7 37 0
-42 77 47 37 0
-42 7 47 37 0
-43 78 8 48 0
-43 78 8 38 0
-43 78 48 38 0
-43 8 48 38 0
-44 79 9 49 0
-44 79 9 39 0
-44 79 49 39 0
-44 9 49 39 0
-45 80 10 50 0
-45 80 10 40 0
-45 80 50 40 0
-45 10 50 40 0
-41 -76 -6 -46 0
-41 -76 -6 -36 0
-41 -76 -46 -36 0
-41 -6 -46 -36 0
-42 -77 -7 -47 0
-42 -77 -7 -37 0
-42 -77 -47 -37 0
-42 -7 -47 -37 0
-43 -78 -8 -48 0
-43 -78 -8 -38 0
-43 -78 -48 -38 0
-43 -8 -48 -38 0
-44 -79 -9 -49 0
-44 -79 -9 -39 0
-44 -79 -49 -39 0
-44 -9 -49 -39 0
-45 -80 -10 -50 0
-45 -80 -10 -40 0
-45 -80 -50 -40 0
-45 -10 -50 -40 0
48 0
-46 0
-47 0
-49 0
-50 0
83 13 53 43 0
-83 -13 0
-83 -53 0
-83 -43 0
-13 -53 0
-13 -43 0
-53 -43 0
51 52 53 54 55 0
-51 -52 0
-51 -53 0
-51 -54 0
-51 -55 0
-52 -53 0
-52 -54 0
-52 -55 0
-53 -54 0
-53 -55 0
-54 -55 0
-51 86 16 56 0
-51 86 16 46 0
-51 86 56 46 0
-51 16 56 46 0
-52 87 17 57 0
-52 87 17 47 0
-52 87 57 47 0
-52 17 57 47 0
-53 88 18 58 0
-53 88 18 48 0
-53 88 58 48 0
-53 18 58 48 0
-54 89 19 59 0
-54 89 19 49 0
-54 89 59 49 0
-54 19 59 49 0
-55 90 20 60 0
-55 90 20 50 0
-55 90 60 50 0
-55 20 60 50 0
-51 -86 -16 -56 0
-51 -86 -16 -46 0
-51 -86 -56 -46 0
-51 -16 -56 -46 0
-52 -87 -17 -57 0
-52 -87 -17 -47 0
-52 -87 -57 -47 0
-52 -17 -57 -47 0
-53 -88 -18 -58 0
-53 -88 -18 -48 0
-53 -88 -58 -48 0
-53 -18 -58 -48 0
-54 -89 -19 -59 0
-54 -89 -19 -49 0
-54 -89 -59 -49 0
-54 -19 -59 -49 0
-55 -90 -20 -60 0
-55 -90 -20 -50 0
-55 -90 -60 -50 0
-55 -20 -60 -50 0
56 57 58 59 60 0
-56 -57 0
-56 -58 0
-56 -59 0
-56 -60 0
-57 -58 0
-57 -59 0
-57 -60 0
-58 -59 0
-58 -60 0
-59 -60 0
-56 91 21 61 0
-56 91 21 51 0
-56 91 61 51 0
-56 21 61 51 0
-57 92 22 62 0
-57 92 22 52 0
-57 92 62 52 0
-57 22 62 52 0
-58 93 23 63 0
-58 93 23 53 0
-58 93 63 53 0
-58 23 63 53 0
-59 94 24 64 0
-59 94 24 54 0
-59 94 64 54 0
-59 24 64 54 0
-60 95 25 65 0
-60 95 25 55 0
-60 95 65 55 0
-60 25 65 55 0
-56 -91 -21 -61 0
-56 -91 -21 -51 0
-56 -91 -61 -51 0
-56 -21 -61 -51 0
-57 -92 -22 -62 0
-57 -92 -22 -52 0
-57 -92 -62 -52 0
-57 -22 -62 -52 0
-58 -93 -23 -63 0
-58 -93 -23 -53 0
-58 -93 -63 -53 0
-58 -23 -63 -53 0
-59 -94 -24 -64 0
-59 -94 -24 -54 0
-59 -94 -64 -54 0
-59 -24 -64 -54 0
-60 -95 -25 -65 0
-60 -95 -25 -55 0
-60 -95 -65 -55 0
-60 -25 -65 -55 0
61 62 63 64 65 0
-61 -62 0
-61 -63 0
-61 -64 0
-61 -65 0
-62 -63 0
-62 -64 0
-62 -65 0
-63 -64 0
-63 -65 0
-64 -65 0
-61 96 26 66 0
-61 96 26 56 0
-61 96 66 56 0
-61 26 66 56 0
-62 97 27 67 0
-62 97 27 57 0
-62 97 67 57 0
-62 27 67 57 0
-63 98 28 68 0
-63 98 28 58 0
-63 98 68 58 0
-63 28 68 58 0
-64 99 29 69 0
-64 99 29 59 0
-64 99 69 59 0
-64 29 69 59 0
-65 100 30 70 0
-65 100 30 60 0
-65 100 70 60 0
-65 30 70 60 0
-61 -96 -26 -66 0
-61 -96 -26 -56 0
-61 -96 -66 -56 0
-61 -26 -66 -56 0
-62 -97 -27 -67 0
-62 -97 -27 -57 0
-62 -97 -67 -57 0
-62 -27 -67 -57 0
-63 -98 -28 -68 0
-63 -98 -28 -58 0
-63 -98 -68 -58 0
-63 -28 -68 -58 0
-64 -99 -29 -69 0
-64 -99 -29 -59 0
-64 -99 -69 -59 0
-64 -29 -69 -59 0
-65 -100 -30 -70 0
-65 -100 -30 -60 0
-65 -100 -70 -60 0
-65 -30 -70 -60 0
66 67 68 69 70 0
-66 -67 0
-66 -68 0
-66 -69 0
-66 -70 0
-67 -68 0
-67 -69 0
-67 -70 0
-68 -69 0
-68 -70 0
-69 -70 0
-66 101 31 0
-66 101 61 0
-66 31 61 0
-67 102 32 0
-67 102 62 0
-67 32 62 0
-68 103 33 0
-68 103 63 0
-68 33 63 0
-69 104 34 0
-69 104 64 0
-69 34 64 0
-70 105 35 0
-70 105 65 0
-70 35 65 0
-66 -101 -31 -61 0
-67 -102 -32 -62 0
-68 -103 -33 -63 0
-69 -104 -34 -64 0
-70 -105 -35 -65 0
71 72 73 74 75 0
-71 -72 0
-71 -73 0
-71 -74 0
-71 -75 0
-72 -73 0
-72 -74 0
-72 -75 0
-73 -74 0
-73 -75 0
-74 -75 0
-71 106 36 0
-71 106 76 0
-71 36 76 0
-72 107 37 0
-72 107 77 0
-72 37 77 0
-73 108 38 0
-73 108 78 0
-73 38 78 0
-74 109 39 0
-74 109 79 0
-74 39 79 0
-75 110 40 0
-75 110 80 0
-75 40 80 0
-71 -106 -36 -76 0
-72 -107 -37 -77 0
-73 -108 -38 -78 0
-74 -109 -39 -79 0
-75 -110 -40 -80 0
77 0
-76 0
-78 0
-79 0
-80 0
112 42 82 72 0
-112 -42 0
-112 -82 0
-112 -72 0
-42 -82 0
-42 -72 0
-82 -72 0
81 82 83 84 85 0
-81 -82 0
-81 -83 0
-81 -84 0
-81 -85 0
-82 -83 0
-82 -84 0
-82 -85 0
-83 -84 0
-83 -85 0
-84 -85 0
-81 116 46 86 0
-81 116 46 76 0
-81 116 86 76 0
-81 46 86 76 0
-82 117 47 87 0
-82 117 47 77 0
-82 117 87 77 0
-82 47 87 77 0
-83 118 48 88 0
-83 118 48 78 0
-83 118 88 78 0
-83 48 88 78 0
-84 119 49 89 0
-84 119 49 79 0
-84 119 89 79 0
-84 49 89 79 0
-85 120 50 90 0
-85 120 50 80 0
-85 120 90 80 0
-85 50 90 80 0
-81 -116 -46 -86 0
-81 -116 -46 -76 0
-81 -116 -86 -76 0
-81 -46 -86 -76 0
-82 -117 -47 -87 0
-82 -117 -47 -77 0
-82 -117 -87 -77 0
-82 -47 -87 -77 0
-83 -118 -48 -88 0
-83 -118 -48 -78 0
-83 -118 -88 -78 0
-83 -48 -88 -78 0
-84 -119 -49 -89 0
-84 -119 -49 -79 0
-84 -119 -89 -79 0
-84 -49 -89 -79 0
-85 -120 -50 -90 0
-85 -120 -50 -80 0
-85 -120 -90 -80 0
-85 -50 -90 -80 0
86 87 88 89 90 0
-86 -87 0
-86 -88 0
-86 -89 0
-86 -90 0
-87 -88 0
-87 -89 0
-87 -90 0
-88 -89 0
-88 -90 0
-89 -90 0
-86 121 51 91 0
-86 121 51 81 0
-86 121 91 81 0
-86 51 91 81 0
-87 122 52 92 0
-87 122 52 82 0
-87 122 92 82 0
-87 52 92 82 0
-88 123 53 93 0
-88 123 53 83 0
-88 123 93 83 0
-88 53 93 83 0
-89 124 54 94 0
-89 124 54 84 0
-89 124 94 84 0
-89 54 94 84 0
-90 125 55 95 0
-90 125 55 85 0
-90 125 95 85 0
-90 55 95 85 0
-86 -121 -51 -91 0
-86 -121 -51 -81 0
-86 -121 -91 -81 0
-86 -51 -91 -81 0
-87 -122 -52 -92 0
-87 -122 -52 -82 0
-87 -122 -92 -82 0
-87 -52 -92 -82 0
-88 -123 -53 -93 0
-88 -123 -53 -83 0
-88 -123 -93 -83 0
-88 -53 -93 -83 0
-89 -124 -54 -94 0
-89 -124 -54 -84 0
-89 -124 -94 -84 0
-89 -54 -94 -84 0
-90 -125 -55 -95 0
-90 -125 -55 -85 0
-90 -125 -95 -85 0
-90 -55 -95 -85 0
95 0
-91 0
-92 0
-93 0
-94 0
130 60 100 90 0
-130 -60 0
-130 -100 0
-130 -90 0
-60 -100 0
-60 -90 0
-100 -90 0
96 97 98 99 100 0
-96 -97 0
-96 -98 0
-96 -99 0
-96 -100 0
-97 -98 0
-97 -99 0
-97 -100 0
-98 -99 0
-98 -100 0
-99 -100 0
-96 131 61 101 0
-96 131 61 91 0
-96 131 101 91 0
-96 61 101 91 0
-97 132 62 102 0
-97 132 62 92 0
-97 132 102 92 0
-97 62 102 92 0
-98 133 63 103 0
-98 133 63 93 0
-98 133 103 93 0
-98 63 103 93 0
-99 134 64 104 0
-99 134 64 94 0
-99 134 104 94 0
-99 64 104 94 0
-100 135 65 105 0
-100 135 65 95 0
-100 135 105 95 0
-100 65 105 95 0
-96 -131 -61 -101 0
-96 -131 -61 -91 0
-96 -131 -101 -91 0
-96 -61 -101 -91 0
-97 -132 -62 -102 0
-97 -132 -62 -92 0
-97 -132 -102 -92 0
-97 -62 -102 -92 0
-98 -133 -63 -103 0
-98 -133 -63 -93 0
-98 -133 -103 -93 0
-98 -63 -103 -93 0
-99 -134 -64 -104 0
-99 -134 -64 -94 0
-99 -134 -104 -94 0
-99 -64 -104 -94 0
-100 -135 -65 -105 0
-100 -135 -65 -95 0
-100 -135 -105 -95 0
-100 -65 -105 -95 0
101 102 103 104 105 0
-101 -102 0
-101 -103 0
-101 -104 0
-101 -105 0
-102 -103 0
-102 -104 0
-102 -105 0
-103 -104 0
-103 -105 0
-104 -105 0
-101 136 66 0
-101 136 96 0
-101 66 96 0
-102 137 67 0
-102 137 97 0
-102 67 97 0
-103 138 68 0
-103 138 98 0
-103 68 98 0
-104 139 69 0
-104 139 99 0
-104 69 99 0
-105 140 70 0
-105 140 100 0
-105 70 100 0
-101 -136 -66 -96 0
-102 -137 -67 -97 0
-103 -138 -68 -98 0
-104 -139 -69 -99 0
-105 -140 -70 -100 0
106 107 108 109 110 0
-106 -107 0
-106 -108 0
-106 -109 0
-106 -110 0
-107 -108 0
-107 -109 0
-107 -110 0
-108 -109 0
-108 -110 0
-109 -110 0
-106 141 71 0
-106 141 111 0
-106 71 111 0
-107 142 72 0
-107 142 112 0
-107 72 112 0
-108 143 73 0
-108 143 113 0
-108 73 113 0
-109 144 74 0
-109 144 114 0
-109 74 114 0
-110 145 75 0
-110 145 115 0
-110 75 115 0
-106 -141 -71 -111 0
-107 -142 -72 -112 0
-108 -143 -73 -113 0
-109 -144 -74 -114 0
-110 -145 -75 -115 0
113 0
-111 0
-112 0
-114 0
-115 0
148 78 118 108 0
-148 -78 0
-148 -118 0
-148 -108 0
-78 -118 0
-78 -108 0
-118 -108 0
116 117 118 119 120 0
-116 -117 0
-116 -118 0
-116 -119 0
-116 -120 0
-117 -118 0
-117 -119 0
-117 -120 0
-118 -119 0
-118 -120 0
-119 -120 0
-116 151 81 121 0
-116 151 81 111 0
-116 151 121 111 0
-116 81 121 111 0
-117 152 82 122 0
-117 152 82 112 0
-117 152 122 112 0
-117 82 122 112 0
-118 153 83 123 0
-118 153 83 113 0
-118 153 123 113 0
-118 83 123 113 0
-119 154 84 124 0
-119 154 84 114 0
-119 154 124 114 0
-119 84 124 114 0
-120 155 85 125 0
-120 155 85 115 0
-120 155 125 115 0
-120 85 125 115 0
-116 -151 -81 -121 0
-116 -151 -81 -111 0
-116 -151 -121 -111 0
-116 -81 -121 -111 0
-117 -152 -82 -122 0
-117 -152 -82 -112 0
-117 -152 -122 -112 0
-117 -82 -122 -112 0
-118 -153 -83 -123 0
-118 -153 -83 -113 0
-118 -153 -123 -113 0
-118 -83 -123 -113 0
-119 -154 -84 -124 0
-119 -154 -84 -114 0
-119 -154 -124 -114 0
-119 -84 -124 -114 0
-120 -155 -85 -125 0
-120 -155 -85 -115 0
-120 -155 -125 -115 0
-120 -85 -125 -115 0
121 122 123 124 125 0
-121 -122 0
-121 -123 0
-121 -124 0
-121 -125 0
-122 -123 0
-122 -124 0
-122 -125 0
-123 -124 0
-123 -125 0
-124 -125 0
-121 156 86 126 0
-121 156 86 116 0
-121 156 126 116 0
-121 86 126 116 0
-122 157 87 127 0
-122 157 87 117 0
-122 157 127 117 0
-122 87 127 117 0
-123 158 88 128 0
-123 158 88 118 0
-123 158 128 118 0
-123 88 128 118 0
-124 159 89 129 0
-124 159 89 119 0
-124 159 129 119 0
-124 89 129 119 0
-125 160 90 130 0
-125 160 90 120 0
-125 160 130 120 0
-125 90 130 120 0
-121 -156 -86 -126 0
-121 -156 -86 -116 0
-121 -156 -126 -116 0
-121 -86 -126 -116 0
-122 -157 -87 -127 0
-122 -157 -87 -117 0
-122 -157 -127 -117 0
-122 -87 -127 -117 0
-123 -158 -88 -128 0
-123 -158 -88 -118 0
-123 -158 -128 -118 0
-123 -88 -128 -118 0
-124 -159 -89 -129 0
-124 -159 -89 -119 0
-124 -159 -129 -119 0
-124 -89 -129 -119 0
-125 -160 -90 -130 0
-125 -160 -90 -120 0
-125 -160 -130 -120 0
-125 -90 -130 -120 0
126 127 128 129 130 0
-126 -127 0
-126 -128 0
-126 -129 0
-126 -130 0
-127 -128 0
-127 -129 0
-127 -130 0
-128 -129 0
-128 -130 0
-129 -130 0
-126 161 91 131 0
-126 161 91 121 0
-126 161 131 121 0
-126 91 131 121 0
-127 162 92 132 0
-127 162 92 122 0
-127 162 132 122 0
-127 92 132 122 0
-128 163 93 133 0
-128 163 93 123 0
-128 163 133 123 0
-128 93 133 123 0
-129 164 94 134 0
-129 164 94 124 0
-129 164 134 124 0
-129 94 134 124 0
-130 165 95 135 0
-130 165 95 125 0
-130 165 135 125 0
-130 95 135 125 0
-126 -161 -91 -131 0
-126 -161 -91 -121 0
-126 -161 -131 -121 0
-126 -91 -131 -121 0
-127 -162 -92 -132 0
-127 -162 -92 -122 0
-127 -162 -132 -122 0
-127 -92 -132 -122 0
-128 -163 -93 -133 0
-128 -163 -93 -123 0
-128 -163 -133 -123 0
-128 -93 -133 -123 0
-129 -164 -94 -134 0
-129 -164 -94 -124 0
-129 -164 -134 -124 0
-129 -94 -134 -124 0
-130 -165 -95 -135 0
-130 -165 -95 -125 0
-130 -165 -135 -125 0
-130 -95 -135 -125 0
131 132 133 134 135 0
-131 -132 0
-131 -133 0
-131 -134 0
-131 -135 0
-132 -133 0
-132 -134 0
-132 -135 0
-133 -134 0
-133 -135 0
-134 -135 0
-131 166 96 136 0
-131 166 96 126 0
-131 166 136 126 0
-131 96 136 126 0
-132 167 97 137 0
-132 167 97 127 0
-132 167 137 127 0
-132 97 137 127 0
-133 168 98 138 0
-133 168 98 128 0
-133 168 138 128 0
-133 98 138 128 0
-134 169 99 139 0
-134 169 99 129 0
-134 169 139 129 0
-134 99 139 129 0
-135 170 100 140 0
-135 170 100 130 0
-135 170 140 130 0
-135 100 140 130 0
-131 -166 -96 -136 0
-131 -166 -96 -126 0
-131 -166 -136 -126 0
-131 -96 -136 -126 0
-132 -167 -97 -137 0
-132 -167 -97 -127 0
-132 -167 -137 -127 0
-132 -97 -137 -127 0
-133 -168 -98 -138 0
-133 -168 -98 -128 0
-133 -168 -138 -128 0
-133 -98 -138 -128 0
-134 -169 -99 -139 0
-134 -169 -99 -129 0
-134 -169 -139 -129 0
-134 -99 -139 -129 0
-135 -170 -100 -140 0
-135 -170 -100 -130 0
-135 -170 -140 -130 0
-135 -100 -140 -130 0
136 137 138 139 140 0
-136 -137 0
-136 -138 0
-136 -139 0
-136 -140 0
-137 -138 0
-137 -139 0
-137 -140 0
-138 -139 0
-138 -140 0
-139 -140 0
-136 171 101 0
-136 171 131 0
-136 101 131 0
-137 172 102 0
-137 172 132 0
-137 102 132 0
-138 173 103 0
-138 173 133 0
-138 103 133 0
-139 174 104 0
-139 174 134 0
-139 104 134 0
-140 175 105 0
-140 175 135 0
-140 105 135 0
-136 -171 -101 -131 0
-137 -172 -102 -132 0
-138 -173 -103 -133 0
-139 -174 -104 -134 0
-140 -175 -105 -135 0
141 142 143 144 145 0
-141 -142 0
-141 -143 0
-141 -144 0
-141 -145 0
-142 -143 0
-142 -144 0
-142 -145 0
-143 -144 0
-143 -145 0
-144 -145 0
-141 176 106 0
-141 176 146 0
-141 106 146 0
-142 177 107 0
-142 177 147 0
-142 107 147 0
-143 178 108 0
-143 178 148 0
-143 108 148 0
-144 179 109 0
-144 179 149 0
-144 109 149 0
-145 180 110 0
-145 180 150 0
-145 110 150 0
-141 -176 -106 -146 0
-142 -177 -107 -147 0
-143 -178 -108 -148 0
-144 -179 -109 -149 0
-145 -180 -110 -150 0
149 0
-146 0
-147 0
-148 0
-150 0
184 114 154 144 0
-184 -114 0
-184 -154 0
-184 -144 0
-114 -154 0
-114 -144 0
-154 -144 0
151 152 153 154 155 0
-151 -152 0
-151 -153 0
-151 -154 0
-151 -155 0
-152 -153 0
-152 -154 0
-152 -155 0
-153 -154 0
-153 -155 0
-154 -155 0
-151 186 116 156 0
-151 186 116 146 0
-151 186 156 146 0
-151 116 156 146 0
-152 187 117 157 0
-152 187 117 147 0
-152 187 157 147 0
-152 117 157 147 0
-153 188 118 158 0
-153 188 118 148 0
-153 188 158 148 0
-153 118 158 148 0
-154 189 119 159 0
-154 189 119 149 0
-154 189 159 149 0
-154 119 159 149 0
-155 190 120 160 0
-155 190 120 150 0
-155 190 160 150 0
-155 120 160 150 0
-151 -186 -116 -156 0
-151 -186 -116 -146 0
-151 -186 -156 -146 0
-151 -116 -156 -146 0
-152 -187 -117 -157 0
-152 -187 -117 -147 0
-152 -187 -157 -147 0
-152 -117 -157 -147 0
-153 -188 -118 -158 0
-153 -188 -118 -148 0
-153 -188 -158 -148 0
-153 -118 -158 -148 0
-154 -189 -119 -159 0
-154 -189 -119 -149 0
-154 -189 -159 -149 0
-154 -119 -159 -149 0
-155 -190 -120 -160 0
-155 -190 -120 -150 0
-155 -190 -160 -150 0
-155 -120 -160 -150 0
156 157 158 159 160 0
-156 -157 0
-156 -158 0
-156 -159 0
-156 -160 0
-157 -158 0
-157 -159 0
-157 -160 0
-158 -159 0
-158 -160 0
-159 -160 0
-156 191 121 161 0
-156 191 121 151 0
-156 191 161 151 0
-156 121 161 151 0
-157 192 122 162 0
-157 192 122 152 0
-157 192 162 152 0
-157 122 162 152 0
-158 193 123 163 0
-158 193 123 153 0
-158 193 163 153 0
-158 123 163 153 0
-159 194 124 164 0
-159 194 124 154 0
-159 194 164 154 0
-159 124 164 154 0
-160 195 125 165 0
-160 195 125 155 0
-160 195 165 155 0
-160 125 165 155 0
-156 -191 -121 -161 0
-156 -191 -121 -151 0
-156 -191 -161 -151 0
-156 -121 -161 -151 0
-157 -192 -122 -162 0
-157 -192 -122 -152 0
-157 -192 -162 -152 0
-157 -122 -162 -152 0
-158 -193 -123 -163 0
-158 -193 -123 -153 0
-158 -193 -163 -153 0
-158 -123 -163 -153 0
-159 -194 -124 -164 0
-159 -194 -124 -154 0
-159 -194 -164 -154 0
-159 -124 -164 -154 0
-160 -195 -125 -165 0
-160 -195 -125 -155 0
-160 -195 -165 -155 0
-160 -125 -165 -155 0
161 162 163 164 165 0
-161 -162 0
-161 -163 0
-161 -164 0
-161 -165 0
-162 -163 0
-162 -164 0
-162 -165 0
-163 -164 0
-163 -165 0
-164 -165 0
-161 196 126 166 0
-161 196 126 156 0
-161 196 166 156 0
-161 126 166 156 0
-162 197 127 167 0
-162 197 127 157 0
-162 197 167 157 0
-162 127 167 157 0
-163 198 128 168 0
-163 198 128 158 0
-163 198 168 158 0
-163 128 168 158 0
-164 199 129 169 0
-164 199 129 159 0
-164 199 169 159 0
-164 129 169 159 0
-165 200 130 170 0
-165 200 130 160 0
-165 200 170 160 0
-165 130 170 160 0
-161 -196 -126 -166 0
-161 -196 -126 -156 0
-161 -196 -166 -156 0
-161 -126 -166 -156 0
-162 -197 -127 -167 0
-162 -197 -127 -157 0
-162 -197 -167 -157 0
-162 -127 -167 -157 0
-163 -198 -128 -168 0
-163 -198 -128 -158 0
-163 -198 -168 -158 0
-163 -128 -168 -158 0
-164 -199 -129 -169 0
-164 -199 -129 -159 0
-164 -199 -169 -159 0
-164 -129 -169 -159 0
-165 -200 -130 -170 0
-165 -200 -130 -160 0
-165 -200 -170 -160 0
-165 -130 -170 -160 0
166 167 168 169 170 0
-166 -167 0
-166 -168 0
-166 -169 0
-166 -170 0
-167 -168 0
-167 -169 0
-167 -170 0
-168 -169 0
-168 -170 0
-169 -170 0
-166 201 131 171 0
-166 201 131 161 0
-166 201 171 161 0
-166 131 171 161 0
-167 202 132 172 0
-167 202 132 162 0
-167 202 172 162 0
-167 132 172 162 0
-168 203 133 173 0
-168 203 133 163 0
-168 203 173 163 0
-168 133 173 163 0
-169 204 134 174 0
-169 204 134 164 0
-169 204 174 164 0
-169 134 174 164 0
-170 205 135 175 0
-170 205 135 165 0
-170 205 175 165 0
-170 135 175 165 0
-166 -201 -131 -171 0
-166 -201 -131 -161 0
-166 -201 -171 -161 0
-166 -131 -171 -161 0
-167 -202 -132 -172 0
-167 -202 -132 -162 0
-167 -202 -172 -162 0
-167 -132 -172 -162 0
-168 -203 -133 -173 0
-168 -203 -133 -163 0
-168 -203 -173 -163 0
-168 -133 -173 -163 0
-169 -204 -134 -174 0
-169 -204 -134 -164 0
-169 -204 -174 -164 0
-169 -134 -174 -164 0
-170 -205 -135 -175 0
-170 -205 -135 -165 0
-170 -205 -175 -165 0
-170 -135 -175 -165 0
171 172 173 174 175 0
-171 -172 0
-171 -173 0
-171 -174 0
-171 -175 0
-172 -173 0
-172 -174 0
-172 -175 0
-173 -174 0
-173 -175 0
-174 -175 0
-171 206 136 0
-171 206 166 0
-171 136 166 0
-172 207 137 0
-172 207 167 0
-172 137 167 0
-173 208 138 0
-173 208 168 0
-173 138 168 0
-174 209 139 0
-174 209 169 0
-174 139 169 0
-175 210 140 0
-175 210 170 0
-175 140 170 0
-171 -206 -136 -166 0
-172 -207 -137 -167 0
-173 -208 -138 -168 0
-174 -209 -139 -169 0
-175 -210 -140 -170 0
176 177 178 179 180 0
-176 -177 0
-176 -178 0
-176 -179 0
-176 -180 0
-177 -178 0
-177 -179 0
-177 -180 0
-178 -179 0
-178 -180 0
-179 -180 0
-176 211 141 0
-176 211 181 0
-176 141 181 0
-177 212 142 0
-177 212 182 0
-177 142 182 0
-178 213 143 0
-178 213 183 0
-178 143 183 0
-179 214 144 0
-179 214 184 0
-179 144 184 0
-180 215 145 0
-180 215 185 0
-180 145 185 0
-176 -211 -141 -181 0
-177 -212 -142 -182 0
-178 -213 -143 -183 0
-179 -214 -144 -184 0
-180 -215 -145 -185 0
185 0
-181 0
-182 0
-183 0
-184 0
220 150 190 180 0
-220 -150 0
-220 -190 0
-220 -180 0
-150 -190 0
-150 -180 0
-190 -180 0
186 187 188 189 190 0
-186 -187 0
-186 -188 0
-186 -189 0
-186 -190 0
-187 -188 0
-187 -189 0
-187 -190 0
-188 -189 0
-188 -190 0
-189 -190 0
-186 221 151 191 0
-186 221 151 181 0
-186 221 191 181 0
-186 151 191 181 0
-187 222 152 192 0
-187 222 152 182 0
-187 222 192 182 0
-187 152 192 182 0
-188 223 153 193 0
-188 223 153 183 0
-188 223 193 183 0
-188 153 193 183 0
-189 224 154 194 0
-189 224 154 184 0
-189 224 194 184 0
-189 154 194 184 0
-190 225 155 195 0
-190 225 155 185 0
-190 225 195 185 0
-190 155 195 185 0
-186 -221 -151 -191 0
-186 -221 -151 -181 0
-186 -221 -191 -181 0
-186 -151 -191 -181 0
-187 -222 -152 -192 0
-187 -222 -152 -182 0
-187 -222 -192 -182 0
-187 -152 -192 -182 0
-188 -223 -153 -193 0
-188 -223 -153 -183 0
-188 -223 -193 -183 0
-188 -153 -193 -183 0
-189 -224 -154 -194 0
-189 -224 -154 -184 0
-189 -224 -194 -184 0
-189 -154 -194 -184 0
-190 -225 -155 -195 0
-190 -225 -155 -185 0
-190 -225 -195 -185 0
-190 -155 -195 -185 0
191 192 193 194 195 0
-191 -192 0
-191 -193 0
-191 -194 0
-191 -195 0
-192 -193 0
-192 -194 0
-192 -195 0
-193 -194 0
-193 -195 0
-194 -195 0
-191 226 156 196 0
-191 226 156 186 0
-191 226 196 186 0
-191 156 196 186 0
-192 227 157 197 0
-192 227 157 187 0
-192 227 197 187 0
-192 157 197 187 0
-193 228 158 198 0
-193 228 158 188 0
-193 228 198 188 0
-193 158 198 188 0
-194 229 159 199 0
-194 229 159 189 0
-194 229 199 189 0
-194 159 199 189 0
-195 230 160 200 0
-195 230 160 190 0
-195 230 200 190 0
-195 160 200 190 0
-191 -226 -156 -196 0
-191 -226 -156 -186 0
-191 -226 -196 -186 0
-191 -156 -196 -186 0
-192 -227 -157 -197 0
-192 -227 -157 -187 0
-192 -227 -197 -187 0
-192 -157 -197 -187 0
-193 -228 -158 -198 0
-193 -228 -158 -188 0
-193 -228 -198 -188 0
-193 -158 -198 -188 0
-194 -229 -159 -199 0
-194 -229 -159 -189 0
-194 -229 -199 -189 0
-194 -159 -199 -189 0
-195 -230 -160 -200 0
-195 -230 -160 -190 0
-195 -230 -200 -190 0
-195 -160 -200 -190 0
196 197 198 199 200 0
-196 -197 0
-196 -198 0
-196 -199 0
-196 -200 0
-197 -198 0
-197 -199 0
-197 -200 0
-198 -199 0
-198 -200 0
-199 -200 0
-196 231 161 201 0
-196 231 161 191 0
-196 231 201 191 0
-196 161 201 191 0
-197 232 162 202 0
-197 232 162 192 0
-197 232 202 192 0
-197 162 202 192 0
-198 233 163 203 0
-198 233 163 193 0
-198 233 203 193 0
-198 163 203 193 0
-199 234 164 204 0
-199 234 164 194 0
-199 234 204 194 0
-199 164 204 194 0
-200 235 165 205 0
-200 235 165 195 0
-200 235 205 195 0
-200 165 205 195 0
-196 -231 -161 -201 0
-196 -231 -161 -191 0
-196 -231 -201 -191 0
-196 -161 -201 -191 0
-197 -232 -162 -202 0
-197 -232 -162 -192 0
-197 -232 -202 -192 0
-197 -162 -202 -192 0
-198 -233 -163 -203 0
-198 -233 -163 -193 0
-198 -233 -203 -193 0
-198 -163 -203 -193 0
-199 -234 -164 -204 0
-199 -234 -164 -194 0
-199 -234 -204 -194 0
-199 -164 -204 -194 0
-200 -235 -165 -205 0
-200 -235 -165 -195 0
-200 -235 -205 -195 0
-200 -165 -205 -195 0
204 0
-201 0
-202 0
-203 0
-205 0
239 169 209 199 0
-239 -169 0
-239 -209 0
-239 -199 0
-169 -209 0
-169 -199 0
-209 -199 0
206 207 208 209 210 0
-206 -207 0
-206 -208 0
-206 -209 0
-206 -210 0
-207 -208 0
-207 -209 0
-207 -210 0
-208 -209 0
-208 -210 0
-209 -210 0
-206 241 171 0
-206 241 201 0
-206 171 201 0
-207 242 172 0
-207 242 202 0
-207 172 202 0
-208 243 173 0
-208 243 203 0
-208 173 203 0
-209 244 174 0
-209 244 204 0
-209 174 204 0
-210 245 175 0
-210 245 205 0
-210 175 205 0
-206 -241 -171 -201 0
-207 -242 -172 -202 0
-208 -243 -173 -203 0
-209 -244 -174 -204 0
-210 -245 -175 -205 0
211 212 213 214 215 0
-211 -212 0
-211 -213 0
-211 -214 0
-211 -215 0
-212 -213 0
-212 -214 0
-212 -215 0
-213 -214 0
-213 -215 0
-214 -215 0
-211 176 0
-211 216 0
-212 177 0
-212 217 0
-213 178 0
-213 218 0
-214 179 0
-214 219 0
-215 180 0
-215 220 0
216 217 218 219 220 0
-216 -217 0
-216 -218 0
-216 -219 0
-216 -220 0
-217 -218 0
-217 -219 0
-217 -220 0
-218 -219 0
-218 -220 0
-219 -220 0
-216 211 181 0
-216 181 221 0
-216 211 221 0
-217 212 182 0
-217 182 222 0
-217 212 222 0
-218 213 183 0
-218 183 223 0
-218 213 223 0
-219 214 184 0
-219 184 224 0
-219 214 224 0
-220 215 185 0
-220 185 225 0
-220 215 225 0
-216 -181 -211 -221 0
-217 -182 -212 -222 0
-218 -183 -213 -223 0
-219 -184 -214 -224 0
-220 -185 -215 -225 0
221 222 223 224 225 0
-221 -222 0
-221 -223 0
-221 -224 0
-221 -225 0
-222 -223 0
-222 -224 0
-222 -225 0
-223 -224 0
-223 -225 0
-224 -225 0
-221 216 186 0
-221 186 226 0
-221 216 226 0
-222 217 187 0
-222 187 227 0
-222 217 227 0
-223 218 188 0
-223 188 228 0
-223 218 228 0
-224 219 189 0
-224 189 229 0
-224 219 229 0
-225 220 190 0
-225 190 230 0
-225 220 230 0
-221 -186 -216 -226 0
-222 -187 -217 -227 0
-223 -188 -218 -228 0
-224 -189 -219 -229 0
-225 -190 -220 -230 0
226 227 228 229 230 0
-226 -227 0
-226 -228 0
-226 -229 0
-226 -230 0
-227 -228 0
-227 -229 0
-227 -230 0
-228 -229 0
-228 -230 0
-229 -230 0
-226 221 191 0
-226 191 231 0
-226 221 231 0
-227 222 192 0
-227 192 232 0
-227 222 232 0
-228 223 193 0
-228 193 233 0
-228 223 233 0
-229 224 194 0
-229 194 234 0
-229 224 234 0
-230 225 195 0
-230 195 235 0
-230 225 235 0
-226 -191 -221 -231 0
-227 -192 -222 -232 0
-228 -193 -223 -233 0
-229 -194 -224 -234 0
-230 -195 -225 -235 0
231 232 233 234 235 0
-231 -232 0
-231 -233 0
-231 -234 0
-231 -235 0
-232 -233 0
-232 -234 0
-232 -235 0
-233 -234 0
-233 -235 0
-234 -235 0
-231 226 196 0
-231 196 236 0
-231 226 236 0
-232 227 197 0
-232 197 237 0
-232 227 237 0
-233 228 198 0
-233 198 238 0
-233 228 238 0
-234 229 199 0
-234 199 239 0
-234 229 239 0
-235 230 200 0
-235 200 240 0
-235 230 240 0
-231 -196 -226 -236 0
-232 -197 -227 -237 0
-233 -198 -228 -238 0
-234 -199 -229 -239 0
-235 -200 -230 -240 0
236 237 238 239 240 0
-236 -237 0
-236 -238 0
-236 -239 0
-236 -240 0
-237 -238 0
-237 -239 0
-237 -240 0
-238 -239 0
-238 -240 0
-239 -240 0
-236 231 201 0
-236 201 241 0
-236 231 241 0
-237 232 202 0
-237 202 242 0
-237 232 242 0
-238 233 203 0
-238 203 243 0
-238 233 243 0
-239 234 204 0
-239 204 244 0
-239 234 244 0
-240 235 205 0
-240 205 245 0
-240 235 245 0
-236 -201 -231 -241 0
-237 -202 -232 -242 0
-238 -203 -233 -243 0
-239 -204 -234 -244 0
-240 -205 -235 -245 0
241 242 243 244 245 0
-241 -242 0
-241 -243 0
-241 -244 0
-241 -245 0
-242 -243 0
-242 -244 0
-242 -245 0
-243 -244 0
-243 -245 0
-244 -245 0
-241 206 0
-241 236 0
-242 207 0
-242 237 0
-243 208 0
-243 238 0
-244 209 0
-244 239 0
-245 210 0
-245 240 0
6 41 216 0
81 116 151 186 221 0
37 42 52 57 62 67 0
73 83 88 98 103 0
84 119 154 189 224 0
54 89 124 159 194 229 0
24 59 129 164 199 234 0
110 120 125 130 135 140 0
145 155 160 165 170 175 0
85 120 155 190 225 0
55 90 125 160 195 230 0